
  22   10
  10   10   10   10   10   10   10   10   10   10

   0   0   0   0   0   0   0   0   0   0   0   3 2 5 15 
   9  10  10  10  10  10  10  10  10  10  10   1 3 
   6  10  10  10  10  10  10  10  10  10  10   2 12 4 
   5  10  10  10  10  10  10  10  10  10  10   2 21 6 
   3  10  10  10  10  10  10  10  10  10  10   2 21 6 
   7  10  10  10  10  10  10  10  10  10  10   1 7 
  10  10  10  10  10  10  10  10  10  10  10   1 8 
   9  10  10  10  10  10  10  10  10  10  10   2 20 9 
   8  10  10  10  10  10  10  10  10  10  10   1 10 
   8  10  10  10  10  10  10  10  10  10  10   1 11 
   4  10  10  10  10  10  10  10  10  10  10   2 19 13 
   7  10  10  10  10  10  10  10  10  10  10   2 19 13 
   1  10  10  10  10  10  10  10  10  10  10   1 14 
   6  10  10  10  10  10  10  10  10  10  10   1 16 
   4  10  10  10  10  10  10  10  10  10  10   1 16 
   6  10  10  10  10  10  10  10  10  10  10   1 17 
   6  10  10  10  10  10  10  10  10  10  10   1 18 
   9  10  10  10  10  10  10  10  10  10  10   1 22
   1  10  10  10  10  10  10  10  10  10  10   1 22
   1  10  10  10  10  10  10  10  10  10  10   1 22
   9  10  10  10  10  10  10  10  10  10  10   1 22
   0   0   0   0   0   0   0   0   0   0   0   0 
